 vasp.6.1.2 22Jul20 (build Dec 05 2020 14:50:36) complex

 executed on         CrayXC-Intel date 2021.05.09  13:10:20

 INCAR:
 POTCAR:    PAW_PBE Li_sv 10Sep2004
 POTCAR:    PAW_PBE Ti_pv 07Sep2000
 POTCAR:    PAW_PBE Fe_pv 02Aug2007
 POTCAR:    PAW_PBE Co 02Aug2007
 POTCAR:    PAW_PBE Cu_pv 06Sep2000
 POTCAR:    PAW_PBE Ni_pv 06Sep2000
 POTCAR:    PAW_PBE O 08Apr2002
 POTCAR:    PAW_PBE Li_sv 10Sep2004
   VRHFIN =Li: 1s2s2p

   TITEL  = PAW_PBE Li_sv 10Sep2004
   POMASS =    7.010; ZVAL   =    3.000    mass and valenz
   ENMAX  =  499.034; ENMIN  =  374.276 eV

 POTCAR:    PAW_PBE Ti_pv 07Sep2000
   VRHFIN =Ti: d3 s1

   TITEL  = PAW_PBE Ti_pv 07Sep2000
   POMASS =   47.880; ZVAL   =   10.000    mass and valenz
   ENMAX  =  222.335; ENMIN  =  166.751 eV

 POTCAR:    PAW_PBE Fe_pv 02Aug2007
   VRHFIN =Fe:  3pd7s1

   TITEL  = PAW_PBE Fe_pv 02Aug2007
   POMASS =   55.847; ZVAL   =   14.000    mass and valenz
   ENMAX  =  293.238; ENMIN  =  219.928 eV

 POTCAR:    PAW_PBE Co 02Aug2007
   VRHFIN =Co: d8 s1

   TITEL  = PAW_PBE Co 02Aug2007
   POMASS =   58.933; ZVAL   =    9.000    mass and valenz
   ENMAX  =  267.968; ENMIN  =  200.976 eV

 POTCAR:    PAW_PBE Cu_pv 06Sep2000
   VRHFIN =Cu: d10 p1

[...]

 POTCAR:    PAW_PBE Ni_pv 06Sep2000
   VRHFIN =Ni:

   TITEL  = PAW_PBE Ni_pv 06Sep2000
   POMASS =   58.690; ZVAL   =   16.000    mass and valenz
   ENMAX  =  367.986; ENMIN  =  275.989 eV

 POTCAR:    PAW_PBE O 08Apr2002
   VRHFIN =O: s2p4

   TITEL  = PAW_PBE O 08Apr2002
   POMASS =   16.000; ZVAL   =    6.000    mass and valenz
   ENMAX  =  400.000; ENMIN  =  300.000 eV

 Optimization of the real space projectors (new method)

 maximal supplied QI-value         = 22.11
 optimisation between [QCUT,QGAM] = [ 11.50, 23.22] = [ 37.02,150.92] Ry
 Optimized for a Real-space Cutoff    1.08 Angstroem

   l    n(q)    QCUT    max X(q) W(low)/X(q) W(high)/X(q)  e(spline)
   0      7    11.497    10.506    0.36E-04    0.62E-04    0.14E-07
   0      7    11.497     8.367    0.65E-04    0.14E-03    0.28E-07
   1      7    11.497     8.983    0.21E-03    0.43E-03    0.90E-07
 Optimization of the real space projectors (new method)

[...]

   l    n(q)    QCUT    max X(q) W(low)/X(q) W(high)/X(q)  e(spline)
   1      9    11.527     2.836    0.16E-04    0.30E-04    0.95E-07
   1      9    11.527     4.023    0.73E-04    0.81E-04    0.21E-06
   2      9    11.527    73.368    0.15E-03    0.29E-03    0.28E-06
   2      9    11.527    69.010    0.15E-03    0.29E-03    0.29E-06
   0      9    11.527    54.797    0.43E-04    0.28E-04    0.85E-07
   0      9    11.527    24.266    0.33E-04    0.24E-04    0.75E-07
 Optimization of the real space projectors (new method)

 maximal supplied QI-value         = 24.76
 optimisation between [QCUT,QGAM] = [ 11.64, 23.27] = [ 37.91,151.63] Ry
 Optimized for a Real-space Cutoff    1.14 Angstroem

   l    n(q)    QCUT    max X(q) W(low)/X(q) W(high)/X(q)  e(spline)
   0      8    11.635    20.381    0.10E-03    0.33E-03    0.24E-06
   0      8    11.635    15.268    0.11E-03    0.35E-03    0.26E-06
   1      7    11.635     5.964    0.24E-03    0.31E-03    0.30E-06
   1      7    11.635     5.382    0.22E-03    0.25E-03    0.26E-06
  PAW_PBE Li_sv 10Sep2004               :
  PAW_PBE Ti_pv 07Sep2000               :
  PAW_PBE Fe_pv 02Aug2007               :
  PAW_PBE Co 02Aug2007                  :
  PAW_PBE Cu_pv 06Sep2000               :
  PAW_PBE Ni_pv 06Sep2000               :
  PAW_PBE O 08Apr2002                   :

 POSCAR: Li9 Ti2 Fe2 Co1 Cu2 Ni2 O18
  positions in direct lattice
 exchange correlation table for  LEXCH =        8
   RHO(1)=    0.500       N(1)  =     2000
   RHO(2)=  100.500       N(2)  =     4000

 ion  position               nearest neighbor table
   1  0.000  0.021  0.970-  22 2.02  20 2.03  32 2.10  26 2.13  35 2.14  11 2.89
   2  0.994  0.026  0.492-  20 1.96  21 1.98  32 2.06  36 2.13
   3  0.989  0.318  0.031-  32 2.00  33 2.05  22 2.08  21 2.13  34 2.23
   4  0.333  0.984  0.026-  25 1.98  19 2.05  31 2.13  28 2.14  21 2.22  14 2.83
   5  0.330  0.991  0.493-  26 2.03  19 2.06  27 2.09  21 2.10  22 2.25
   6  0.665  0.013  0.990-  20 2.04  36 2.17  27 2.17  19 2.20  28 2.21  35 2.26
   7  0.684  0.330  0.980-  20 1.97  34 2.01  27 2.14  29 2.18  32 2.19  30 2.27
   8  0.693  0.325  0.507-  20 1.96  33 2.02  32 2.08  28 2.13  30 2.27
   9  0.653  0.665  0.501-  30 2.05  19 2.07  31 2.07  33 2.11  35 2.12  34 2.25  14 2.80
  10  0.342  0.313  0.524-  22 1.82  28 1.89  27 1.95  29 2.03  24 2.13  23 2.34  11 2.91
  11  0.677  0.000  0.480-  32 1.81  27 1.93  35 1.96  31 2.09  28 2.13  36 2.16   1 2.89  10 2.91
                            13 2.92
  12  0.986  0.678  0.997-  33 1.90  26 1.97  35 2.07  36 2.08  24 2.16  23 2.23
  13  0.996  0.670  0.497-  34 1.93  25 1.97  36 2.03  23 2.06  24 2.07  35 2.07  11 2.92  14 2.95

  14  0.336  0.669  0.992-  25 1.93  30 1.93  29 1.94  26 1.94  31 1.97  23 2.03   9 2.80   4 2.83
                            13 2.95
  15  0.334  0.327  0.011-  21 1.90  30 1.94  23 2.11  28 2.13
  16  0.335  0.672  0.494-  19 1.85  24 1.92  26 2.08  30 2.11  25 2.11  29 2.14
  17  0.995  0.329  0.505-  20 1.87  21 1.95  34 2.00  23 2.09  22 2.12  33 2.20
  18  0.660  0.661  0.009-  19 2.03  29 2.05  31 2.05  36 2.10  33 2.12  34 2.19
  19  0.495  0.819  0.259-  16 1.85  18 2.03   4 2.05   5 2.06   9 2.07   6 2.20
  20  0.840  0.174  0.740-  17 1.87   8 1.96   2 1.96   7 1.97   1 2.03   6 2.04
  21  0.164  0.183  0.259-  15 1.90  17 1.95   2 1.98   5 2.10   3 2.13   4 2.22
  22  0.168  0.188  0.734-  10 1.82   1 2.02   3 2.08  17 2.12   5 2.25
  23  0.163  0.506  0.250-  14 2.03  13 2.06  17 2.09  15 2.11  12 2.23  10 2.34
  24  0.169  0.521  0.716-  16 1.92  13 2.07  10 2.13  12 2.16
  25  0.179  0.811  0.241-  14 1.93  13 1.97   4 1.98  16 2.11
  26  0.176  0.811  0.783-  14 1.94  12 1.97   5 2.03  16 2.08   1 2.13
  27  0.506  0.157  0.290-  11 1.93  10 1.95   5 2.09   7 2.14   6 2.17
  28  0.496  0.173  0.731-  10 1.89   8 2.13  11 2.13  15 2.13   4 2.14   6 2.21
  29  0.477  0.508  0.231-  14 1.94  10 2.03  18 2.05  16 2.14   7 2.18
  30  0.473  0.507  0.774-  14 1.93  15 1.94   9 2.05  16 2.11   7 2.27   8 2.27
  31  0.509  0.822  0.760-  14 1.97  18 2.05   9 2.07  11 2.09   4 2.13
  32  0.825  0.151  0.274-  11 1.81   3 2.00   2 2.06   8 2.08   1 2.10   7 2.19
  33  0.840  0.510  0.229-  12 1.90   8 2.02   3 2.05   9 2.11  18 2.12  17 2.20
  34  0.848  0.499  0.729-  13 1.93  17 2.00   7 2.01  18 2.19   3 2.23   9 2.25
  35  0.834  0.834  0.259-  11 1.96  13 2.07  12 2.07   9 2.12   1 2.14   6 2.26
  36  0.836  0.832  0.741-  13 2.03  12 2.08  18 2.10   2 2.13  11 2.16   6 2.17

IMPORTANT INFORMATION: All symmetrisations will be switched off!
NOSYMM: (Re-)initialisation of all symmetry stuff for point group C_1.

                                     Primitive cell

  volume of cell :     325.8471

  direct lattice vectors                    reciprocal lattice vectors
     0.003152000  6.461509000  6.039393000    -0.079987986  0.077476720  0.082729440
     6.249641000  0.002016000  6.040655000     0.080082585 -0.077352916  0.082717608
     4.173467000  4.314738000 -0.005615000     0.119748093  0.115775146 -0.123929606

  length of vectors
     8.844511083  8.691808185  6.002901160     0.138725918  0.138704351  0.207610302

  position of ions in fractional coordinates (direct lattice)
     0.000204000  0.021288000  0.970268000
     0.994211000  0.026178000  0.492309000
     0.988796000  0.318330000  0.030666000
     0.332726000  0.984227000  0.026243000
     0.330094000  0.990667000  0.493435000
     0.664793000  0.012684000  0.989824000
     0.683937000  0.329652000  0.979977000
     0.692545000  0.324970000  0.507481000
     0.652737000  0.665419000  0.501327000
     0.342157000  0.312765000  0.524014000
     0.676662000  0.000229000  0.480095000
     0.986407000  0.678210000  0.997445000
     0.995622000  0.670063000  0.496904000
     0.336406000  0.669044000  0.991802000
     0.333923000  0.327178000  0.010782000
     0.335210000  0.672281000  0.494476000
     0.994790000  0.328940000  0.505382000
     0.660198000  0.661120000  0.008812000
     0.494772000  0.818531000  0.258875000
     0.839959000  0.174318000  0.740255000
     0.163817000  0.183036000  0.258769000
     0.168109000  0.188054000  0.733798000
     0.163337000  0.505696000  0.249806000
     0.168794000  0.520945000  0.715764000
     0.179342000  0.810943000  0.240709000
     0.176120000  0.811237000  0.782528000
     0.505798000  0.156898000  0.289950000
     0.496131000  0.173196000  0.731411000
     0.476503000  0.508410000  0.230628000
     0.473411000  0.506544000  0.774135000
     0.509295000  0.822171000  0.759676000
     0.824885000  0.150844000  0.274175000
     0.839531000  0.510404000  0.229270000
     0.847924000  0.498669000  0.729218000
     0.834465000  0.834494000  0.258723000
     0.836389000  0.832365000  0.741069000

  ion indices of the primitive-cell ions
   primitive index   ion index
                 1           1
                 2           2
                 3           3
                 4           4
                 5           5
                 6           6
                 7           7
                 8           8
                 9           9
                10          10
                11          11
                12          12
                13          13
                14          14
                15          15
                16          16
                17          17
                18          18
                19          19
                20          20
                21          21
                22          22
                23          23
                24          24
                25          25
                26          26
                27          27
                28          28
                29          29
                30          30
                31          31
                32          32
                33          33
                34          34
                35          35
                36          36

 KPOINTS: pymatgen v2021.2.14 with grid density =

Automatic generation of k-mesh.
Space group operators:
 irot       det(A)        alpha          n_x          n_y          n_z        tau_x        tau_y        tau_z
    1     1.000000     0.000000     1.000000     0.000000     0.000000     0.000000     0.000000     0.000000

 Subroutine IBZKPT returns following result:

 Found     36 irreducible k-points:

 Following reciprocal coordinates:
            Coordinates               Weight
  0.000000  0.000000  0.000000      1.000000
  0.250000  0.000000  0.000000      2.000000
  0.500000 -0.000000 -0.000000      1.000000
  0.000000  0.250000  0.000000      2.000000
  0.250000  0.250000 -0.000000      2.000000
  0.500000  0.250000  0.000000      2.000000
 -0.250000  0.250000 -0.000000      2.000000
  0.000000  0.500000 -0.000000      1.000000
  0.250000  0.500000  0.000000      2.000000
  0.500000  0.500000  0.000000      1.000000
 -0.000000 -0.000000  0.250000      2.000000
  0.250000 -0.000000  0.250000      2.000000
[...]
    170      15.7232      0.00000
    171      15.8398      0.00000
    172      15.9168      0.00000
    173      16.0558      0.00000
    174      16.2339      0.00000
    175      16.3908      0.00000
    176      16.5559      0.00000
    177      16.6752      0.00000
    178      16.7996      0.00000
    179      17.1320      0.00000
    180      17.3728      0.00000

[...]

 spin component 2

[...]

 k-point    36 :       0.5000    0.5000    0.5000
  band No.  band energies     occupation
      1     -66.5963      1.00000
      2     -66.1897      1.00000
      3     -65.9422      1.00000
      4     -65.6294      1.00000
      5     -65.5900      1.00000
      6     -65.0334      1.00000
      7     -58.5503      1.00000
      8     -58.5175      1.00000
      9     -58.2316      1.00000
     10     -57.9577      1.00000
     11     -57.9241      1.00000
     12     -57.8944      1.00000
     13     -48.9655      1.00000
     14     -48.9146      1.00000
     15     -48.6769      1.00000
     16     -48.6043      1.00000
     17     -48.5544      1.00000
     18     -48.4232      1.00000
     19     -39.9807      1.00000
     20     -39.2344      1.00000
     21     -39.2280      1.00000
     22     -39.1923      1.00000
     23     -39.1732      1.00000
     24     -39.0847      1.00000
     25     -39.0624      1.00000
     26     -39.0546      1.00000
     27     -38.9375      1.00000
     28     -29.5765      1.00000
     29     -29.4986      1.00000
     30     -29.3704      1.00000
     31     -29.3428      1.00000
     32     -29.3225      1.00000
     33     -29.2661      1.00000
     34     -14.4285      1.00000
     35     -14.1978      1.00000
     36     -13.6851      1.00000
     37     -13.5755      1.00000
     38     -13.4894      1.00000
     39     -13.4192      1.00000
     40     -13.3764      1.00000
     41     -13.1607      1.00000
     42     -12.9482      1.00000
     43     -12.8885      1.00000
     44     -12.7821      1.00000
     45     -12.6595      1.00000
     46     -12.5462      1.00000
     47     -12.4902      1.00000
     48     -12.4445      1.00000
     49     -12.3300      1.00000
     50     -12.2228      1.00000
     51     -11.7905      1.00000
     52      -1.7810      1.00000
     53      -1.4830      1.00000
     54      -1.4180      1.00000
     55      -1.3427      1.00000
     56      -1.3261      1.00000
     57      -1.2877      1.00000
     58      -1.0292      1.00000
     59      -0.9105      1.00000
     60      -0.8277      1.00000
[...]
    166      15.1496      0.00000
    167      15.3813      0.00000
    168      15.5438      0.00000
    169      15.7727      0.00000
    170      15.8678      0.00000
    171      16.0260      0.00000
    172      16.0639      0.00000
    173      16.2989      0.00000
    174      16.3184      0.00000
    175      16.6183      0.00000
    176      16.7022      0.00000
    177      16.8417      0.00000
    178      17.0431      0.00000
    179      17.2019      0.00000
    180      17.3479      0.00000

 soft charge-density along one line, spin component           1
         0         1         2         3         4         5         6         7         8         9
 total charge-density along one line

 soft charge-density along one line, spin component           2
         0         1         2         3         4         5         6         7         8         9
 total charge-density along one line

------------------------ aborting loop because EDIFF is reached ----------------------------------------

 total charge

# of ion       s       p       d       tot
    1        2.019   0.055   0.000   2.074
    2        2.021   0.057   0.000   2.078
    3        2.020   0.055   0.000   2.074
    4        2.018   0.053   0.000   2.071
    5        2.018   0.053   0.000   2.071
    6        2.013   0.044   0.000   2.057
    7        2.020   0.056   0.000   2.076
    8        2.020   0.057   0.000   2.077
    9        2.020   0.056   0.000   2.077
   10        0.323   6.445   2.044   8.813
   11        0.313   6.436   2.016   8.766
   12        0.304   6.359   5.624  12.287
   13        0.317   6.398   5.674  12.388
   14        0.393   0.592   7.236   8.220
   15        0.232   6.181   8.822  15.235
   16        0.254   6.227   8.728  15.208
   17        0.251   6.235   7.868  14.353
   18        0.222   6.195   7.898  14.315
   19        1.556   3.442   0.000   4.998
   20        1.551   3.472   0.000   5.024
   21        1.555   3.439   0.000   4.994
   22        1.569   3.464   0.000   5.033
   23        1.566   3.449   0.000   5.015
   24        1.567   3.451   0.000   5.018
   25        1.565   3.428   0.000   4.994
   26        1.563   3.439   0.000   5.001
   27        1.568   3.482   0.000   5.049
   28        1.564   3.466   0.000   5.030
   29        1.563   3.453   0.000   5.016
   30        1.564   3.405   0.000   4.969
   31        1.553   3.456   0.000   5.010
   32        1.567   3.474   0.000   5.042
   33        1.554   3.470   0.000   5.024
   34        1.559   3.448   0.000   5.007
   35        1.560   3.485   0.000   5.045
   36        1.557   3.478   0.000   5.035
tot         48.880 113.754  55.909 218.543

 magnetization (x)

[...]

  FORCE on cell =-STRESS in cart. coord.  units (eV):
  Direction    XX          YY          ZZ          XY          YZ          ZX
  Alpha Z  1071.80364  1071.80364  1071.80364
  Ewald   -6432.01757 -7009.68945 -6052.75673  1102.73791   715.23841 -1073.85525
  Hartree  3837.67013  3479.66970  3923.42054   966.42988   601.33038  -941.06116
  E(xc)   -1490.98638 -1491.81567 -1489.40651     0.13978     0.18510    -0.10257
  Local   -1662.49002  -751.61650 -2105.43367 -2064.31603 -1313.82440  2012.65444
  n-local -1016.94797 -1020.56543 -1006.19694     0.32497     1.07113    -0.42156
  augment  1568.20602  1576.64572  1559.32492    -1.85973    -0.58789     0.64479
  Kinetic  4125.76216  4146.16798  4100.70336    -3.67680    -3.69048     2.02681
  Fock        0.00000     0.00000     0.00000     0.00000     0.00000     0.00000
  Total       1.00001     0.59999     1.45862    -0.22002    -0.27775    -0.11450
  in kB       4.91699     2.95014     7.17199    -1.08183    -1.36569    -0.56298

 VOLUME and BASIS-vectors are now :
  energy-cutoff  :      520.00
  volume of cell :      325.85
      direct lattice vectors                 reciprocal lattice vectors
     0.003152000  6.461509000  6.039393000    -0.079987986  0.077476720  0.082729440
     6.249641000  0.002016000  6.040655000     0.080082585 -0.077352916  0.082717608
     4.173467000  4.314738000 -0.005615000     0.119748093  0.115775146 -0.123929606

  length of vectors
     8.844511083  8.691808185  6.002901160     0.138725918  0.138704351  0.207610302

 FORCES acting on ions
    electron-ion (+dipol)            ewald-force                    non-local-force                 convergence-correction
   -.338E+02 0.158E+01 -.202E+02   0.339E+02 -.287E+01 0.205E+02   -.137E+00 0.125E+01 -.261E+00   -.366E-02 0.414E-02 0.173E-02
   0.327E+01 0.274E+02 -.772E+01   -.122E+01 -.283E+02 0.831E+01   -.201E+01 0.891E+00 -.631E+00   -.480E-02 0.431E-02 0.140E-02
   0.465E+02 -.227E+02 0.103E+03   -.461E+02 0.229E+02 -.104E+03   -.332E+00 -.270E+00 0.698E+00   -.810E-03 0.114E-02 0.410E-02
   -.376E+02 0.586E+02 -.213E+02   0.370E+02 -.576E+02 0.206E+02   0.560E+00 -.104E+01 0.711E+00   0.139E-02 0.132E-02 -.511E-02
   -.130E+02 -.151E+02 -.139E+02   0.125E+02 0.145E+02 0.136E+02   0.571E+00 0.586E+00 0.279E+00   -.197E-02 -.610E-03 -.413E-02
   -.243E+02 0.518E+01 -.261E+02   0.242E+02 -.512E+01 0.270E+02   0.118E+00 -.495E-01 -.861E+00   0.111E-02 -.920E-03 -.232E-02
   0.340E+02 -.436E+02 0.326E+02   -.355E+02 0.437E+02 -.320E+02   0.151E+01 -.111E+00 -.579E+00   0.233E-02 -.530E-02 0.211E-03
   0.393E+02 -.210E+02 0.321E+02   -.399E+02 0.231E+02 -.316E+02   0.616E+00 -.208E+01 -.467E+00   0.579E-02 -.321E-02 0.486E-03
   -.198E+02 0.802E+01 -.717E+01   0.200E+02 -.853E+01 0.706E+01   -.182E+00 0.564E+00 0.111E+00   -.305E-03 -.233E-02 -.579E-02
   0.176E+03 -.190E+03 0.891E+02   -.176E+03 0.190E+03 -.895E+02   0.525E+00 -.372E+00 -.390E-01   0.153E-01 -.866E-02 0.635E-02
   -.592E+02 0.887E+02 -.686E+02   0.586E+02 -.893E+02 0.691E+02   0.589E+00 0.619E+00 -.180E+00   -.490E-03 -.170E-02 -.399E-02
   -.314E+03 0.246E+03 -.867E+02   0.314E+03 -.246E+03 0.840E+02   -.728E+00 0.371E+00 0.255E+01   -.210E-01 0.158E-01 0.153E-01
   -.193E+03 0.229E+03 -.771E+02   0.193E+03 -.228E+03 0.757E+02   0.332E+00 -.597E+00 0.121E+01   -.162E-01 0.211E-01 0.229E-01
   -.296E+02 0.804E+02 -.244E+03   0.294E+02 -.807E+02 0.246E+03   0.167E+00 0.303E+00 -.227E+01   -.252E-02 -.347E-02 -.885E-02
   0.523E+03 -.415E+03 0.138E+03   -.522E+03 0.414E+03 -.140E+03   -.120E+01 0.706E+00 0.195E+01   0.128E-01 -.209E-01 0.274E-01
   -.147E+03 0.333E+02 -.387E+03   0.148E+03 -.327E+02 0.391E+03   -.144E+01 -.682E+00 -.480E+01   0.530E-02 0.459E-02 -.175E-01
   0.431E+02 -.944E+02 0.557E+03   -.449E+02 0.954E+02 -.566E+03   0.192E+01 -.102E+01 0.902E+01   -.250E-02 0.157E-02 0.237E-01
   0.385E+02 -.203E+02 0.503E+01   -.341E+02 0.185E+02 -.631E+01   -.464E+01 0.205E+01 0.135E+01   0.133E-01 0.275E-02 -.225E-01
   -.229E+03 0.223E+02 -.345E+03   0.234E+03 -.215E+02 0.358E+03   -.471E+01 -.694E+00 -.126E+02   0.717E-02 -.666E-03 -.266E-01
   0.480E+01 -.225E+02 0.280E+03   -.476E+01 0.235E+02 -.291E+03   -.320E-01 -.988E+00 0.100E+02   0.825E-03 -.873E-03 0.305E-02
   0.266E+03 -.227E+02 0.315E+03   -.274E+03 0.225E+02 -.323E+03   0.767E+01 0.181E+00 0.846E+01   -.305E-02 0.156E-02 0.563E-02
   0.174E+02 -.218E+03 0.250E+03   -.172E+02 0.221E+03 -.262E+03   -.211E+00 -.293E+01 0.124E+02   -.268E-03 0.678E-03 0.297E-02
   -.823E+01 -.623E+02 -.410E+02   0.614E+01 0.626E+02 0.398E+02   0.211E+01 -.306E+00 0.147E+01   -.358E-02 0.673E-03 0.108E-01
   0.653E+02 -.336E+02 0.239E+03   -.638E+02 0.377E+02 -.247E+03   -.149E+01 -.422E+01 0.834E+01   -.826E-03 0.415E-02 0.220E-01
   -.187E+03 0.276E+03 -.271E+03   0.195E+03 -.281E+03 0.279E+03   -.823E+01 0.500E+01 -.747E+01   -.495E-02 0.182E-01 -.306E-05
   -.269E+03 0.154E+03 -.268E+03   0.274E+03 -.161E+03 0.276E+03   -.486E+01 0.707E+01 -.769E+01   -.184E-01 0.763E-02 0.285E-03
   0.187E+03 -.633E+02 0.450E+00   -.196E+03 0.552E+02 -.537E+00   0.852E+01 0.830E+01 0.379E-01   0.461E-02 -.133E-01 -.186E-02
   0.131E+03 -.187E+03 0.246E+01   -.130E+03 0.198E+03 -.175E+01   -.161E+01 -.111E+02 -.772E+00   0.143E-01 -.532E-02 -.165E-03
   0.248E+03 -.147E+03 0.402E+02   -.252E+03 0.153E+03 -.388E+02   0.425E+01 -.645E+01 -.151E+01   0.173E-01 -.863E-02 -.656E-02
   0.166E+03 -.233E+03 -.240E+03   -.174E+03 0.237E+03 0.248E+03   0.858E+01 -.429E+01 -.749E+01   0.540E-02 -.188E-01 -.441E-02
   -.364E+02 0.237E+03 -.853E+02   0.365E+02 -.242E+03 0.884E+02   -.148E+00 0.495E+01 -.312E+01   0.630E-03 -.635E-02 -.177E-01
   0.147E+02 -.789E+01 -.139E+03   -.143E+02 0.774E+01 0.151E+03   -.374E+00 0.141E+00 -.121E+02   -.744E-03 0.148E-02 0.866E-02
   0.121E+02 -.168E+02 0.269E+03   -.123E+02 0.184E+02 -.278E+03   0.161E+00 -.167E+01 0.905E+01   0.122E-02 0.492E-02 0.164E-02
   -.436E+02 -.204E+02 0.277E+03   0.462E+02 0.207E+02 -.285E+03   -.251E+01 -.272E+00 0.831E+01   -.451E-02 0.235E-04 0.281E-02
   -.119E+03 0.247E+03 -.683E+02   0.117E+03 -.253E+03 0.681E+02   0.276E+01 0.586E+01 0.165E+00   -.103E-01 0.464E-02 0.114E-03
   -.252E+03 0.142E+03 -.220E+03   0.259E+03 -.143E+03 0.224E+03   -.716E+01 0.984E+00 -.443E+01   -.551E-02 0.977E-02 0.520E-02
   0.103E+01 -.669E+00 -.895E+01   0.000E+00 0.142E-12 -.398E-12   -.103E+01 0.666E+00 0.891E+01   0.251E-02 0.938E-02 0.393E-01

 POSITION                                       TOTAL-FORCE (eV/Angst)
      4.18242      4.18781      0.12438         0.032239     -0.038452      0.018938
      2.22137      8.54834      6.15980         0.031896     -0.073365     -0.039759
      2.12055      6.52207      7.89448        -0.003821     -0.033709     -0.036920
      6.26164      2.26513      7.95469         0.003072     -0.036643      0.007070
      8.25169      4.26395      7.97507         0.050550      0.012518     -0.011185
      4.21236      8.56642      4.08601         0.029699      0.002188      0.091090
      6.15226      8.64827      6.11638        -0.036519      0.006204      0.017924
      4.15108      6.66519      6.14273         0.021003      0.079784      0.005470
      6.25296      6.38210      7.95889        -0.029934      0.049523      0.000149
      4.14270      4.47246      3.95278        -0.048989      0.226211     -0.445139
      2.00722      6.44374      4.08532        -0.098678      0.039060      0.326930
      8.40448     10.67876     10.04853         0.180201      0.034918     -0.138354
      6.26460      8.57858     10.05778        -0.042841      0.066104     -0.144469
      8.32160      6.45440      6.06758        -0.056453     -0.069186     -0.023741
      2.09080      2.20483      3.99300        -0.119916      0.149506     -0.100893
      6.26625      4.30085      6.08271         0.019134     -0.058411      0.030523
      4.16809      8.60910      7.99210         0.164098     -0.085123      0.278376
      4.17062      4.30523      7.98074        -0.238226      0.170382      0.051336
      6.19749      4.31560      7.93113         0.168027      0.020732      0.013458
      4.18150      8.62176      6.12168         0.004765      0.041523     -0.494163
      2.22439      2.17539      2.09356        -0.315277      0.008522      0.020992
      4.23828      4.25276      2.14713         0.020822      0.123685      0.467513
      4.20349      2.13427      4.03979         0.014753     -0.025101      0.249057
      6.24347      4.18005      4.16224        -0.039390     -0.114423      0.072921
      6.07326      2.19905      5.98039        -0.108835     -0.017239      0.312831
      8.33635      4.51604      5.95967         0.047414      0.103579      0.174674
      2.19225      4.51959      4.00085         0.080213      0.133033     -0.050490
      4.13650      6.36195      4.03844        -0.053176     -0.249651     -0.060736
      4.14140      4.07505      5.94762        -0.100769     -0.117921     -0.122351
      6.39804      6.40016      5.91463         0.124002     -0.071704      0.020543
      8.31036      6.57027      8.03802         0.020206     -0.167744     -0.110812
      2.08958      6.51330      5.89146        -0.021453     -0.000029     -0.301305
      4.14934      6.41491      8.15214        -0.049969     -0.019701     -0.019252
      6.16254      8.62626      8.12914         0.170158      0.003099     -0.142757
      6.29769      6.50991     10.07910         0.124440     -0.045576      0.001713
      8.29745      8.60353     10.07515         0.057556     -0.046595      0.080819
    total drift:                                0.006705      0.006243      0.001591

  FREE ENERGIE OF THE ION-ELECTRON SYSTEM (eV)
  free  energy   TOTEN  =      -211.83256039 eV

  energy  without entropy=     -211.82619988  energy(sigma->0) =     -211.82938013

 total charge

[...]

 magnetization (x)

# of ion       s       p       d       tot
    1        0.000   0.000   0.000   0.000
    2       -0.000  -0.000   0.000  -0.000
    3        0.000   0.001   0.000   0.001
    4        0.001   0.001   0.000   0.001
    5        0.001   0.002   0.000   0.003
    6        0.000   0.000   0.000   0.001
    7        0.001   0.001   0.000   0.002
    8        0.001   0.001   0.000   0.001
    9       -0.000  -0.000   0.000  -0.001
   10        0.003   0.007   0.029   0.038
   11        0.003   0.002   0.018   0.023
   12        0.032   0.030   4.204   4.265
   13        0.024   0.028   4.150   4.202
   14        0.003   0.004   0.038   0.045
   15       -0.019   0.003  -0.506  -0.522
   16       -0.001   0.000  -0.066  -0.067
   17        0.015   0.008   1.466   1.489
   18        0.010   0.008   1.732   1.750
   19        0.003   0.011   0.000   0.014
   20        0.001  -0.120   0.000  -0.119
   21       -0.001  -0.168   0.000  -0.169
   22        0.004   0.029   0.000   0.033
   23        0.008   0.046   0.000   0.054
   24        0.009   0.105   0.000   0.114
   25        0.007   0.155   0.000   0.162
   26        0.001  -0.020   0.000  -0.019
   27       -0.000  -0.005   0.000  -0.005
   28       -0.003  -0.025   0.000  -0.029
   29        0.001  -0.061   0.000  -0.060
   30        0.000   0.009   0.000   0.009
   31        0.003   0.019   0.000   0.022
   32        0.000   0.000   0.000   0.001
   33        0.011   0.180   0.000   0.192
   34        0.009   0.042   0.000   0.051
   35        0.010   0.127   0.000   0.137
   36        0.013   0.171   0.000   0.184
tot          0.148   0.591  11.065  11.804