 vasp.6.1.2 22Jul20 (build Dec 05 2020 14:50:36) complex

 executed on         CrayXC-Intel date 2021.05.09  15:10:43

 INCAR:
 POTCAR:    PAW_PBE Li_sv 10Sep2004
 POTCAR:    PAW_PBE Ti_pv 07Sep2000
 POTCAR:    PAW_PBE Fe_pv 02Aug2007
 POTCAR:    PAW_PBE Co 02Aug2007
 POTCAR:    PAW_PBE Cu_pv 06Sep2000
 POTCAR:    PAW_PBE Ni_pv 06Sep2000
 POTCAR:    PAW_PBE O 08Apr2002
 POTCAR:    PAW_PBE Li_sv 10Sep2004
   VRHFIN =Li: 1s2s2p

   TITEL  = PAW_PBE Li_sv 10Sep2004
   POMASS =    7.010; ZVAL   =    3.000    mass and valenz
   ENMAX  =  499.034; ENMIN  =  374.276 eV

 POTCAR:    PAW_PBE Ti_pv 07Sep2000
   VRHFIN =Ti: d3 s1

   TITEL  = PAW_PBE Ti_pv 07Sep2000
   POMASS =   47.880; ZVAL   =   10.000    mass and valenz
   ENMAX  =  222.335; ENMIN  =  166.751 eV

 POTCAR:    PAW_PBE Fe_pv 02Aug2007
   VRHFIN =Fe:  3pd7s1

   TITEL  = PAW_PBE Fe_pv 02Aug2007
   POMASS =   55.847; ZVAL   =   14.000    mass and valenz
   ENMAX  =  293.238; ENMIN  =  219.928 eV

 POTCAR:    PAW_PBE Co 02Aug2007
   VRHFIN =Co: d8 s1

   TITEL  = PAW_PBE Co 02Aug2007
   POMASS =   58.933; ZVAL   =    9.000    mass and valenz
   ENMAX  =  267.968; ENMIN  =  200.976 eV

 POTCAR:    PAW_PBE Cu_pv 06Sep2000
   VRHFIN =Cu: d10 p1

[...]

 POTCAR:    PAW_PBE Ni_pv 06Sep2000
   VRHFIN =Ni:

   TITEL  = PAW_PBE Ni_pv 06Sep2000
   POMASS =   58.690; ZVAL   =   16.000    mass and valenz
   ENMAX  =  367.986; ENMIN  =  275.989 eV

 POTCAR:    PAW_PBE O 08Apr2002
   VRHFIN =O: s2p4

   TITEL  = PAW_PBE O 08Apr2002
   POMASS =   16.000; ZVAL   =    6.000    mass and valenz
   ENMAX  =  400.000; ENMIN  =  300.000 eV

 Optimization of the real space projectors (new method)

 maximal supplied QI-value         = 22.11
 optimisation between [QCUT,QGAM] = [ 11.50, 23.22] = [ 37.02,150.92] Ry
 Optimized for a Real-space Cutoff    1.08 Angstroem

   l    n(q)    QCUT    max X(q) W(low)/X(q) W(high)/X(q)  e(spline)
   0      7    11.497    10.506    0.36E-04    0.62E-04    0.14E-07
   0      7    11.497     8.367    0.65E-04    0.14E-03    0.28E-07
   1      7    11.497     8.983    0.21E-03    0.43E-03    0.90E-07
 Optimization of the real space projectors (new method)

[...]

   l    n(q)    QCUT    max X(q) W(low)/X(q) W(high)/X(q)  e(spline)
   1      9    11.527     2.836    0.16E-04    0.30E-04    0.95E-07
   1      9    11.527     4.023    0.73E-04    0.81E-04    0.21E-06
   2      9    11.527    73.368    0.15E-03    0.29E-03    0.28E-06
   2      9    11.527    69.010    0.15E-03    0.29E-03    0.29E-06
   0      9    11.527    54.797    0.43E-04    0.28E-04    0.85E-07
   0      9    11.527    24.266    0.33E-04    0.24E-04    0.75E-07
 Optimization of the real space projectors (new method)

 maximal supplied QI-value         = 24.76
 optimisation between [QCUT,QGAM] = [ 11.64, 23.27] = [ 37.91,151.63] Ry
 Optimized for a Real-space Cutoff    1.14 Angstroem

   l    n(q)    QCUT    max X(q) W(low)/X(q) W(high)/X(q)  e(spline)
   0      8    11.635    20.381    0.10E-03    0.33E-03    0.24E-06
   0      8    11.635    15.268    0.11E-03    0.35E-03    0.26E-06
   1      7    11.635     5.964    0.24E-03    0.31E-03    0.30E-06
   1      7    11.635     5.382    0.22E-03    0.25E-03    0.26E-06
  PAW_PBE Li_sv 10Sep2004               :
  PAW_PBE Ti_pv 07Sep2000               :
  PAW_PBE Fe_pv 02Aug2007               :
  PAW_PBE Co 02Aug2007                  :
  PAW_PBE Cu_pv 06Sep2000               :
  PAW_PBE Ni_pv 06Sep2000               :
  PAW_PBE O 08Apr2002                   :

 POSCAR: Li9 Ti2 Fe2 Co1 Cu1 Ni3 O18
  positions in direct lattice
 exchange correlation table for  LEXCH =        8
   RHO(1)=    0.500       N(1)  =     2000
   RHO(2)=  100.500       N(2)  =     4000

 ion  position               nearest neighbor table
   1  0.983  0.020  0.505-  19 1.93  32 1.98  20 2.04  36 2.14  11 2.88
   2  0.987  0.330  0.011-  21 2.04  32 2.04  33 2.06  34 2.09  23 2.21  20 2.22  11 2.87
   3  0.002  0.312  0.511-  19 1.94  20 2.04  21 2.15
   4  0.334  0.002  0.496-  20 2.03  26 2.04  21 2.06  25 2.19  31 2.20  30 2.21  11 2.82
   5  0.350  0.326  1.000-  27 2.03  29 2.04  26 2.05  22 2.06  20 2.19  23 2.28  11 2.83  14 2.83

   6  0.339  0.663  0.506-  29 2.01  25 2.04  28 2.06  23 2.09  30 2.10  24 2.28  14 2.82
   7  0.669  0.012  0.005-  26 2.02  19 2.04  36 2.13  35 2.13  30 2.18  27 2.27
   8  0.673  0.326  0.998-  19 1.95  28 2.11  26 2.12  34 2.14  32 2.14  29 2.20
   9  0.664  0.662  0.508-  33 2.01  31 2.02  29 2.04  34 2.11  35 2.19  14 2.80
  10  0.001  0.664  0.991-  23 1.93  33 1.95  36 1.99  25 2.02  35 2.03  22 2.10  13 2.97  14 3.00

  11  0.320  0.011  0.022-  20 1.79  30 1.99  27 1.99  24 2.03  21 2.03  31 2.20   4 2.82   5 2.83
                             2 2.87   1 2.88  14 3.07
  12  0.334  0.327  0.495-  26 1.89  21 2.01  27 2.02  28 2.12  23 2.14  22 2.15
  13  0.666  0.663  0.997-  34 1.81  30 1.90  33 2.03  31 2.03  28 2.08  36 2.10  14 2.92  10 2.97

  14  0.343  0.660  0.985-  29 1.86  28 1.87  25 1.95  24 1.95  31 1.97  22 1.99   9 2.80   6 2.82
                             5 2.83  13 2.92  10 3.00  11 3.07
  15  0.687  0.317  0.528-  19 1.92  32 1.97  29 2.11  33 2.22
  16  0.994  0.013  0.994-  19 2.00  35 2.08  32 2.08  21 2.10  25 2.10  24 2.10
  17  0.668  0.005  0.482-  32 2.00  26 2.02  27 2.06  35 2.06  31 2.23
  18  0.001  0.669  0.495-  36 2.04  22 2.05  35 2.06  23 2.08  34 2.09  24 2.15
  19  0.838  0.168  0.756-  15 1.92   1 1.93   3 1.94   8 1.95  16 2.00   7 2.04
  20  0.176  0.150  0.253-  11 1.79   4 2.03   1 2.04   3 2.04   5 2.19   2 2.22
  21  0.175  0.165  0.758-  12 2.01  11 2.03   2 2.04   4 2.06  16 2.10   3 2.15
  22  0.174  0.511  0.228-  14 1.99  18 2.05   5 2.06  10 2.10  12 2.15
  23  0.160  0.510  0.747-  10 1.93  18 2.08   6 2.09  12 2.14   2 2.21   5 2.28
  24  0.180  0.831  0.208-  14 1.95  11 2.03  16 2.10  18 2.15   6 2.28
  25  0.173  0.814  0.780-  14 1.95  10 2.02   6 2.04  16 2.10   4 2.19
  26  0.494  0.168  0.267-  12 1.89  17 2.02   7 2.02   4 2.04   5 2.05   8 2.12
  27  0.483  0.163  0.749-  11 1.99  12 2.02   5 2.03  17 2.06   7 2.27
  28  0.479  0.519  0.222-  14 1.87   6 2.06  13 2.08   8 2.11  12 2.12
  29  0.491  0.510  0.752-  14 1.86   6 2.01   9 2.04   5 2.04  15 2.11   8 2.20
  30  0.503  0.832  0.210-  13 1.90  11 1.99   6 2.10   7 2.18   4 2.21
  31  0.498  0.819  0.769-  14 1.97   9 2.02  13 2.03   4 2.20  11 2.20  17 2.23
  32  0.825  0.166  0.274-  15 1.97   1 1.98  17 2.00   2 2.04  16 2.08   8 2.14
  33  0.831  0.523  0.226-  10 1.95   9 2.01  13 2.03   2 2.06  15 2.22
  34  0.820  0.518  0.769-  13 1.81  18 2.09   2 2.09   9 2.11   8 2.14
  35  0.847  0.829  0.241-  10 2.03  18 2.06  17 2.06  16 2.08   7 2.13   9 2.19
  36  0.839  0.824  0.763-  10 1.99  18 2.04  13 2.10   7 2.13   1 2.14

IMPORTANT INFORMATION: All symmetrisations will be switched off!
NOSYMM: (Re-)initialisation of all symmetry stuff for point group C_1.

                                     Primitive cell

  volume of cell :     323.0522

  direct lattice vectors                    reciprocal lattice vectors
    -0.007025000  6.331204000  6.244012000    -0.081906787  0.079107730  0.079848890
     6.079857000 -0.005863000  6.242358000     0.082369207 -0.078705260  0.079896980
     4.072072000  4.238831000 -0.022467000     0.122451569  0.117648327 -0.119153412

  length of vectors
     8.892237024  8.713881392  5.877921689     0.139077676  0.139150033  0.207444092

  position of ions in fractional coordinates (direct lattice)
     0.983292000  0.020213000  0.504501000
     0.987325000  0.329738000  0.010909000
     0.002473000  0.311903000  0.511412000
     0.333872000  0.002164000  0.496129000
     0.349736000  0.326290000  0.999584000
     0.338914000  0.663390000  0.506004000
     0.668674000  0.011654000  0.004747000
     0.672665000  0.326101000  0.998356000
     0.664058000  0.661593000  0.507579000
     0.001294000  0.663522000  0.991357000
     0.319548000  0.011108000  0.021573000
     0.334235000  0.326869000  0.494897000
     0.665666000  0.662836000  0.996712000
     0.342742000  0.659767000  0.984643000
     0.686754000  0.317060000  0.528198000
     0.993710000  0.012925000  0.994262000
     0.668063000  0.004951000  0.482202000
     0.001005000  0.668861000  0.494555000
     0.837809000  0.167874000  0.755901000
     0.176200000  0.149655000  0.252665000
     0.175459000  0.165016000  0.758416000
     0.173734000  0.511040000  0.228350000
     0.159670000  0.509739000  0.747090000
     0.180424000  0.830988000  0.208116000
     0.173249000  0.813542000  0.780239000
     0.493514000  0.167996000  0.267234000
     0.483120000  0.163109000  0.748754000
     0.478606000  0.519262000  0.222344000
     0.490764000  0.510104000  0.752262000
     0.503011000  0.831779000  0.210071000
     0.497754000  0.819162000  0.768599000
     0.824828000  0.166182000  0.274015000
     0.831136000  0.522535000  0.226170000
     0.820450000  0.517641000  0.768706000
     0.846764000  0.829149000  0.240599000
     0.839482000  0.824280000  0.762849000

  ion indices of the primitive-cell ions
   primitive index   ion index
                 1           1
                 2           2
                 3           3
                 4           4
                 5           5
                 6           6
                 7           7
                 8           8
                 9           9
                10          10
                11          11
                12          12
                13          13
                14          14
                15          15
                16          16
                17          17
                18          18
                19          19
                20          20
                21          21
                22          22
                23          23
                24          24
                25          25
                26          26
                27          27
                28          28
                29          29
                30          30
                31          31
                32          32
                33          33
                34          34
                35          35
                36          36

 KPOINTS: pymatgen v2021.2.14 with grid density =

Automatic generation of k-mesh.
Space group operators:
 irot       det(A)        alpha          n_x          n_y          n_z        tau_x        tau_y        tau_z
    1     1.000000     0.000000     1.000000     0.000000     0.000000     0.000000     0.000000     0.000000

 Subroutine IBZKPT returns following result:

 Found     36 irreducible k-points:

 Following reciprocal coordinates:
            Coordinates               Weight
  0.000000  0.000000  0.000000      1.000000
  0.250000 -0.000000  0.000000      2.000000
  0.500000 -0.000000  0.000000      1.000000
  0.000000  0.250000  0.000000      2.000000
  0.250000  0.250000  0.000000      2.000000
  0.500000  0.250000  0.000000      2.000000
 -0.250000  0.250000  0.000000      2.000000
  0.000000  0.500000  0.000000      1.000000
  0.250000  0.500000  0.000000      2.000000
  0.500000  0.500000  0.000000      1.000000
[...]
     29     -29.4915      1.00000
     30     -29.4630      1.00000
     31     -29.0152      1.00000
     32     -29.0077      1.00000
     33     -28.9521      1.00000
     34     -14.4161      1.00000
     35     -13.6608      1.00000
     36     -13.5735      1.00000
     37     -13.5106      1.00000
     38     -13.4262      1.00000
     39     -13.3135      1.00000
     40     -13.2059      1.00000
     41     -13.1215      1.00000
     42     -13.0593      1.00000
     43     -12.9901      1.00000
     44     -12.8478      1.00000
     45     -12.8254      1.00000
     46     -12.6729      1.00000
     47     -12.6095      1.00000
     48     -12.4818      1.00000
     49     -12.4398      1.00000
     50     -12.3406      1.00000
     51     -12.1182      1.00000
     52      -3.7446      1.00000
     53      -3.4857      1.00000
     54      -3.4429      1.00000
     55      -3.3895      1.00000
     56      -3.3408      1.00000
     57      -3.3222      1.00000
     58      -3.2639      1.00000
     59      -3.2111      1.00000
     60      -3.1403      1.00000
[...]
    166      15.0093      0.00000
    167      15.2285      0.00000
    168      15.3787      0.00000
    169      15.5299      0.00000
    170      15.7300      0.00000
    171      15.8856      0.00000
    172      16.0381      0.00000
    173      16.2664      0.00000
    174      16.4494      0.00000
    175      16.4825      0.00000
    176      16.6415      0.00000
    177      16.8054      0.00000
    178      16.9032      0.00000
    179      16.9911      0.00000
    180      17.2911      0.00000

[...]

 spin component 2

[...]

 k-point    36 :       0.5000    0.5000    0.5000
  band No.  band energies     occupation
      1     -65.8990      1.00000
      2     -65.7304      1.00000
      3     -65.2540      1.00000
      4     -58.1165      1.00000
      5     -58.1045      1.00000
      6     -58.0779      1.00000
      7     -58.0205      1.00000
      8     -58.0058      1.00000
      9     -57.9725      1.00000
     10     -57.9579      1.00000
     11     -57.9245      1.00000
     12     -57.9052      1.00000
     13     -48.7475      1.00000
     14     -48.6054      1.00000
     15     -48.5740      1.00000
     16     -48.5290      1.00000
     17     -48.4812      1.00000
     18     -48.3630      1.00000
     19     -39.4698      1.00000
     20     -39.1907      1.00000
     21     -39.1516      1.00000
     22     -39.1240      1.00000
     23     -39.1028      1.00000
     24     -39.0863      1.00000
     25     -39.0674      1.00000
     26     -38.9672      1.00000
     27     -38.6975      1.00000
     28     -29.5094      1.00000
     29     -29.4589      1.00000
     30     -29.4125      1.00000
     31     -28.9955      1.00000
     32     -28.9801      1.00000
     33     -28.9298      1.00000
     34     -14.1299      1.00000
     35     -13.7184      1.00000
     36     -13.3705      1.00000
     37     -13.3247      1.00000
     38     -13.1773      1.00000
     39     -13.1699      1.00000
     40     -13.0564      1.00000
     41     -12.9468      1.00000
     42     -12.9288      1.00000
     43     -12.8761      1.00000
     44     -12.7884      1.00000
     45     -12.6162      1.00000
     46     -12.5943      1.00000
     47     -12.5168      1.00000
     48     -12.4242      1.00000
     49     -12.3810      1.00000
     50     -12.2991      1.00000
     51     -11.9704      1.00000
     52      -1.4970      1.00000
     53      -1.4350      1.00000
     54      -1.3068      1.00000
     55      -1.2186      1.00000
     56      -1.1295      1.00000
     57      -0.9746      1.00000
     58      -0.8205      1.00000
     59      -0.6696      1.00000
     60      -0.6069      1.00000
[...]
    166      15.5380      0.00000
    167      15.9290      0.00000
    168      15.9649      0.00000
    169      16.0316      0.00000
    170      16.1244      0.00000
    171      16.2730      0.00000
    172      16.4034      0.00000
    173      16.4849      0.00000
    174      16.6253      0.00000
    175      16.7944      0.00000
    176      16.8338      0.00000
    177      16.9556      0.00000
    178      17.1083      0.00000
    179      17.2551      0.00000
    180      17.2873      0.00000

 soft charge-density along one line, spin component           1
         0         1         2         3         4         5         6         7         8         9
 total charge-density along one line

 soft charge-density along one line, spin component           2
         0         1         2         3         4         5         6         7         8         9
 total charge-density along one line

------------------------ aborting loop because EDIFF is reached ----------------------------------------

 total charge

# of ion       s       p       d       tot
    1        2.024   0.062   0.000   2.086
    2        2.020   0.057   0.000   2.078
    3        2.018   0.052   0.000   2.069
    4        2.019   0.055   0.000   2.074
    5        2.020   0.057   0.000   2.077
    6        2.021   0.059   0.000   2.081
    7        2.019   0.054   0.000   2.072
    8        2.022   0.059   0.000   2.081
    9        2.021   0.057   0.000   2.078
   10        0.313   6.440   1.915   8.667
   11        0.332   6.464   2.036   8.832
   12        0.302   6.360   5.635  12.296
   13        0.333   6.445   5.684  12.461
   14        0.419   0.655   7.163   8.237
   15        0.212   6.159   8.811  15.183
   16        0.221   6.196   7.893  14.310
   17        0.221   6.191   7.902  14.314
   18        0.221   6.202   7.918  14.341
   19        1.551   3.476   0.000   5.027
   20        1.570   3.473   0.000   5.043
   21        1.554   3.489   0.000   5.043
   22        1.559   3.459   0.000   5.017
   23        1.560   3.472   0.000   5.031
   24        1.562   3.451   0.000   5.013
   25        1.563   3.447   0.000   5.010
   26        1.554   3.486   0.000   5.040
   27        1.561   3.477   0.000   5.038
   28        1.565   3.437   0.000   5.002
   29        1.558   3.427   0.000   4.985
   30        1.564   3.465   0.000   5.029
   31        1.563   3.444   0.000   5.006
   32        1.552   3.454   0.000   5.006
   33        1.565   3.460   0.000   5.025
   34        1.564   3.449   0.000   5.014
   35        1.555   3.482   0.000   5.036
   36        1.561   3.468   0.000   5.029
tot         48.840 113.940  54.955 217.734

 magnetization (x)

[...]

  FORCE on cell =-STRESS in cart. coord.  units (eV):
  Direction    XX          YY          ZZ          XY          YZ          ZX
  Alpha Z  1075.98591  1075.98591  1075.98591
  Ewald   -6401.07254 -6673.56643 -6847.97855  -739.61611  -184.91434  -418.17852
  Hartree  3501.33425  3424.50112  3341.04402  -623.67466  -200.92125  -332.70965
  E(xc)   -1475.44827 -1476.64502 -1476.97483    -0.09484     0.08362    -0.11978
  Local   -1369.83581 -1016.94332  -792.00521  1363.04391   386.84825   750.05299
  n-local -1017.96538 -1018.85712 -1029.41176    -0.53556     0.27697    -0.08423
  augment  1553.83741  1549.86676  1566.21794     0.06376    -0.05893     0.25916
  Kinetic  4135.77527  4135.25162  4162.80617     0.82960    -1.32233     0.66381
  Fock        0.00000     0.00000     0.00000     0.00000     0.00000     0.00000
  Total       2.61084    -0.40647    -0.31631     0.01610    -0.00801    -0.11622
  in kB      12.94848    -2.01587    -1.56875     0.07987    -0.03970    -0.57641

 VOLUME and BASIS-vectors are now :
  energy-cutoff  :      520.00
  volume of cell :      323.05
      direct lattice vectors                 reciprocal lattice vectors
    -0.007025000  6.331204000  6.244012000    -0.081906787  0.079107730  0.079848890
     6.079857000 -0.005863000  6.242358000     0.082369207 -0.078705260  0.079896980
     4.072072000  4.238831000 -0.022467000     0.122451569  0.117648327 -0.119153412

  length of vectors
     8.892237024  8.713881392  5.877921689     0.139077676  0.139150033  0.207444092

 FORCES acting on ions:
    Electron-Ion                     Ewald-Force                    Non-Local-Force
   0.176E+02 -.660E+02 -.621E+02   -.158E+02 0.648E+02 0.625E+02   -.184E+01 0.134E+01 -.448E+00
   0.374E+01 -.404E+02 -.181E+02   -.386E+01 0.397E+02 0.177E+02   0.140E+00 0.536E+00 0.436E+00
   0.250E+02 0.910E+01 -.335E+02   -.256E+02 -.860E+01 0.315E+02   0.649E+00 -.440E+00 0.209E+01
   0.461E+02 0.393E+02 0.203E+02   -.456E+02 -.399E+02 -.194E+02   -.604E+00 0.615E+00 -.889E+00
   -.972E+01 0.226E+01 0.408E+02   0.971E+01 -.159E+01 -.400E+02   0.434E-01 -.654E+00 -.763E+00
   -.404E+02 -.114E+02 -.298E+02   0.404E+02 0.123E+02 0.298E+02   0.240E-01 -.882E+00 0.738E-01
   -.287E+02 0.244E+02 0.396E+02   0.293E+02 -.240E+02 -.389E+02   -.516E+00 -.351E+00 -.720E+00
   0.858E+01 0.360E+02 -.229E+02   -.943E+01 -.358E+02 0.228E+02   0.965E+00 -.222E+00 0.190E+00
   0.104E+02 0.381E+02 0.253E+02   -.104E+02 -.375E+02 -.262E+02   0.680E-01 -.548E+00 0.821E+00
   0.906E+02 -.959E+02 0.423E+02   -.906E+02 0.957E+02 -.420E+02   -.175E+00 0.780E-01 -.227E+00
   -.173E+03 -.841E+02 0.100E+02   0.173E+03 0.845E+02 -.101E+02   0.406E+00 -.185E+00 -.703E-01
   -.729E+02 0.139E+03 0.936E+02   0.666E+02 -.137E+03 -.955E+02   0.661E+01 -.269E+01 0.207E+01
   -.113E+03 -.103E+03 0.162E+03   0.112E+03 0.102E+03 -.161E+03   0.177E+01 0.597E+00 -.296E+00
   0.163E+03 0.570E+02 -.498E+02   -.164E+03 -.573E+02 0.501E+02   0.773E+00 0.773E-01 -.286E+00
   -.262E+03 -.341E+02 -.166E+03   0.258E+03 0.429E+02 0.167E+03   0.429E+01 -.891E+01 -.554E+00
   0.705E+02 0.227E+03 -.347E+03   -.709E+02 -.228E+03 0.346E+03   0.249E+00 0.195E+01 0.121E+01
   0.118E+02 0.129E+03 0.201E+03   -.112E+02 -.136E+03 -.194E+03   -.641E+00 0.677E+01 -.740E+01
   0.140E+03 -.186E+03 0.855E+02   -.139E+03 0.185E+03 -.883E+02   -.642E+00 0.798E+00 0.267E+01
   -.367E+01 -.196E+02 -.659E+02   0.414E+01 0.222E+02 0.651E+02   -.443E+00 -.259E+01 0.667E+00
   -.168E+03 -.361E+02 -.319E+02   0.181E+03 0.360E+02 0.326E+02   -.135E+02 0.209E-01 -.822E+00
   0.264E+01 0.123E+03 -.296E+01   -.322E+01 -.129E+03 0.619E+00   0.608E+00 0.653E+01 0.225E+01
   0.240E+03 0.269E+02 0.153E+03   -.245E+03 -.256E+02 -.160E+03   0.478E+01 -.135E+01 0.702E+01
   -.731E+01 -.225E+03 0.142E+02   0.294E+01 0.230E+03 -.147E+02   0.447E+01 -.549E+01 0.542E+00
   -.104E+03 -.181E+03 -.115E+03   0.111E+03 0.185E+03 0.110E+03   -.627E+01 -.396E+01 0.452E+01
   0.207E+03 0.124E+03 -.157E+03   -.210E+03 -.132E+03 0.165E+03   0.303E+01 0.858E+01 -.822E+01
   0.195E+03 0.246E+03 0.645E+02   -.205E+03 -.252E+03 -.643E+02   0.959E+01 0.570E+01 -.206E+00
   -.242E+03 -.134E+03 0.520E+02   0.246E+03 0.140E+03 -.463E+02   -.341E+01 -.642E+01 -.545E+01
   -.972E+01 -.505E+02 0.919E+01   0.102E+02 0.598E+02 -.103E+02   -.471E+00 -.927E+01 0.922E+00
   -.166E+02 0.349E+02 -.115E+01   0.982E+01 -.365E+02 0.936E+00   0.666E+01 0.151E+01 0.180E+00
   -.270E+03 -.109E+03 0.158E+02   0.279E+03 0.118E+03 -.147E+02   -.902E+01 -.934E+01 -.112E+01
   0.864E+02 0.195E+03 0.573E+02   -.901E+02 -.202E+03 -.520E+02   0.370E+01 0.708E+01 -.541E+01
   0.178E+02 0.549E+01 -.240E+03   -.198E+02 -.679E+01 0.245E+03   0.199E+01 0.125E+01 -.519E+01
   -.111E+02 -.191E+03 0.521E+01   0.120E+02 0.198E+03 -.112E+02   -.922E+00 -.600E+01 0.582E+01
   0.276E+03 -.109E+02 0.189E+03   -.290E+03 0.108E+02 -.194E+03   0.130E+02 0.819E-01 0.507E+01
   0.103E+03 0.195E+03 0.194E+03   -.101E+03 -.200E+03 -.199E+03   -.165E+01 0.423E+01 0.522E+01
   -.200E+03 -.683E+02 -.130E+03   0.207E+03 0.622E+02 0.135E+03   -.653E+01 0.633E+01 -.524E+01
   -.171E+02 0.523E+01 0.151E+01   -.171E-12 0.853E-13 -.142E-12   0.171E+02 -.523E+01 -.153E+01

 POSITION                                       TOTAL-FORCE (eV/Angst)
      2.17035      8.36380      6.25453        -0.075555      0.060305     -0.041394
      2.04225      6.29526      8.22297         0.024241     -0.089269      0.046768
      3.97881      2.18162      1.95096         0.044666      0.065765      0.041817
      2.03108      4.21681      2.08706        -0.070652      0.041749      0.000717
      6.05172      6.44940      4.19812         0.037878      0.017988      0.034172
      6.09142      4.28671      6.24593         0.011705      0.022384      0.044068
      0.08549      4.25356      4.24785         0.012864     -0.001442     -0.093294
      6.04330      8.48873      6.21334         0.123068     -0.017622      0.030664
      6.08462      6.35195      8.26488         0.007675      0.009253     -0.031437
      8.07099      4.20650      4.12775        -0.226896     -0.208424      0.065520
      0.15314      2.11450      2.06412         0.141810      0.305236     -0.128960
      4.00022      4.21198      4.11628         0.222296     -0.187467      0.088593
      8.08395      8.43547      8.27169         0.226370      0.061188      0.025811
      8.01842      6.33984      6.23646        -0.240455     -0.128583      0.026791
      4.07372      6.58506      6.25544         0.348121     -0.180021      0.126816
      4.12031     10.50581      6.26308        -0.106879      0.064456      0.074563
      1.98897      6.27359      4.19147        -0.014223      0.134276     -0.229751
      6.08044      2.09878      4.17043         0.035727      0.058240     -0.099274
      4.09285      8.50749      6.26224         0.021396      0.026421     -0.057357
      1.93751      2.18568      2.02872        -0.228646     -0.060592     -0.083693
      4.09037      4.32470      2.10862         0.027891      0.100117     -0.097377
      4.03569      2.06489      4.26976        -0.136804     -0.021100      0.092616
      6.14022      4.17470      4.16217         0.102260      0.104914      0.048186
      5.89848      2.01960      6.30922         0.156189      0.029597      0.103851
      8.12219      4.39941      6.14266        -0.044991      0.029333     -0.122012
      2.10612      4.25631      4.12419        -0.186197     -0.093503     -0.010508
      4.03727      6.23162      4.01797         0.139079      0.087088      0.203241
      4.05908      3.96959      6.22485        -0.019924      0.085833     -0.181717
      6.16118      6.29285      6.23169        -0.130209     -0.035921     -0.031338
      5.90899      4.07024      8.32835         0.533023     -0.383648     -0.029597
      8.10668      6.40454      8.20422         0.041825     -0.164491     -0.137805
      2.12038      6.38268      6.18145        -0.013164     -0.051744      0.133219
      4.09208      6.21772      8.44639        -0.021800      0.264322     -0.144431
      6.27165      8.44982      8.33693        -0.736920     -0.017941      0.041273
      6.01490      6.37603     10.45764        -0.134667     -0.161979      0.126885
      8.11198      8.54369     10.37005         0.129897      0.235282      0.164375
    total drift:                               -0.013539     -0.001921     -0.018212

  FREE ENERGIE OF THE ION-ELECTRON SYSTEM (eV)
  free  energy   TOTEN  =      -212.27810657 eV

  energy  without entropy=     -212.26963470  energy(sigma->0) =     -212.27387064

 total charge

[...]

 magnetization (x)

# of ion       s       p       d       tot
    1        0.001   0.001   0.000   0.001
    2        0.001   0.001   0.000   0.002
    3        0.001   0.001   0.000   0.001
    4        0.001   0.001   0.000   0.001
    5        0.001   0.002   0.000   0.003
    6        0.001   0.002   0.000   0.003
    7        0.001   0.003   0.000   0.004
    8        0.001   0.001   0.000   0.002
    9        0.001   0.001   0.000   0.001
   10        0.004   0.006   0.042   0.052
   11        0.003   0.003   0.021   0.027
   12        0.025   0.038   4.195   4.258
   13        0.026   0.033   3.916   3.974
   14        0.007   0.007   1.052   1.066
   15        0.002  -0.007  -0.554  -0.559
   16        0.007   0.003   1.681   1.692
   17        0.008   0.010   1.734   1.752
   18        0.007   0.006   1.745   1.758
   19        0.000  -0.160   0.000  -0.159
   20        0.000  -0.006   0.000  -0.006
   21        0.009   0.080   0.000   0.089
   22        0.009   0.050   0.000   0.059
   23        0.007   0.075   0.000   0.083
   24        0.007   0.022   0.000   0.029
   25        0.004   0.007   0.000   0.011
   26        0.009   0.199   0.000   0.208
   27        0.007   0.082   0.000   0.089
   28        0.010   0.097   0.000   0.106
   29       -0.001   0.022   0.000   0.022
   30        0.003   0.016   0.000   0.018
   31        0.008  -0.018   0.000  -0.010
   32        0.003  -0.091   0.000  -0.088
   33        0.003   0.010   0.000   0.013
   34        0.006   0.058   0.000   0.064
   35        0.010   0.064   0.000   0.073
   36        0.011   0.114   0.000   0.124
tot          0.203   0.729  13.833  14.765